35666
1 1 0 0 0 1 0 0 1 1 0 0 0 0 1 0 0 0 1 0 0 0 0 0 0 0 0 1 1 1 
18 14 0 27 5 29 1 27 27 0 29 28 8 1 28 27 1 8 27 27 27 27 5 0 8 18 27 14 29 5 9 9 9 27 27 29 8 8 0 5 18 9 9 29 8 9 8 5 14 14 0 27 0 5 8 29 27 9 27 18 29 0 18 8 8 28 5 14 14 28 18 9 9 9 1 1 8 1 8 27 1 0 9 18 29 8 29 5 27 18 28 9 18 18 5 1 0 14 0 28 14 5 18 18 29 0 29 27 27 1 9 29 27 14 14 8 28 18 14 8 9 18 14 9 9 27 5 28 9 0 28 5 27 8 1 9 1 8 28 8 14 27 28 28 27 5 0 5 27 18 0 0 1 0 8 28 5 5 8 1 1 27 8 0 5 27 1 29 1 5 1 8 14 14 9 5 0 8 29 8 5 5 5 14 14 8 28 1 0 0 5 5 9 29 18 9 18 5 9 14 
